p cnf 30 77
a 27 6 0
e 1 2 3 4 5 7 8 9 10 11 12 13 14 15 16 17 18 19 20 21 22 23 24 25 26 28 29 30 0
3 -1 0
3 2 0
1 -2 -3 0
5 3 0
5 -4 0
-3 4 -5 0
-9 -7 0
-9 8 0
7 -8 9 0
10 1 0
10 -9 0
-1 9 -10 0
6 10 -11 0
-6 -10 -11 0
6 -10 11 0
-6 10 11 0
-13 -2 0
-13 -12 0
2 12 13 0
15 -2 0
15 -4 0
2 4 -15 0
16 -14 0
16 15 0
14 -15 -16 0
17 -13 0
17 16 0
13 -16 -17 0
9 15 -18 0
-9 -15 -18 0
9 -15 18 0
-9 15 18 0
19 1 0
19 -4 0
-1 4 -19 0
20 -18 0
20 -19 0
18 19 -20 0
21 17 0
21 -20 0
-17 20 -21 0
-11 21 -22 0
11 -21 -22 0
-11 -21 22 0
11 21 22 0
-23 -5 0
-23 -22 0
5 22 23 0
-24 10 0
-24 12 0
-10 -12 24 0
25 12 0
25 -2 0
-12 2 -25 0
25 -14 -26 0
-25 14 -26 0
25 14 26 0
-25 -14 26 0
-27 1 0
-27 -1 0
-28 26 0
-28 27 0
-26 -27 28 0
29 24 0
29 28 0
-24 -28 -29 0
30 -23 0
30 29 0
23 -29 -30 0
-2 14 -22 -27 -12 -1 0
5 6 -24 16 0
15 12 2 23 26 -25 -27 0
11 26 -23 0
-23 22 12 -11 -19 0
-22 -18 14 24 -10 17 0
6 2 19 -24 29 0
30 0
